NAME 
ROWS
 N  OBJ
 L  R0      
 L  R1      
 L  R2      
 E  R3      
 E  R4      
 E  R5      
 E  R6      
 E  R7      
 E  R8      
 E  R9      
 E  R10     
 E  R11     
 E  R12     
 E  R13     
 E  R14     
 E  R15     
 E  R16     
 E  R17     
 E  R18     
 E  R19     
 E  R20     
 E  R21     
 E  R22     
COLUMNS
    MARKER    'MARKER'                 'INTORG'
    I0(11)    OBJ       -121
    I0(11)    R0        1
    I0(11)    R1        33
    I0(11)    R2        49
    I0(11)    R3        -1
    I0(11)    R5        4
    I0(11)    R6        16
    I0(11)    R7        10
    I0(11)    R8        18
    I0(11)    R11       12
    I0(11)    R12       2
    I0(11)    R22       1
    I1(14)    OBJ       68
    I1(14)    R0        38
    I1(14)    R1        -170
    I1(14)    R2        -39
    I1(14)    R3        1
    I1(14)    R4        7
    I1(14)    R5        8
    I1(14)    R6        1
    I1(14)    R7        12
    I1(14)    R8        2
    I1(14)    R9        12
    I1(14)    R10       15
    I1(14)    R11       10
    I1(14)    R12       5
    I1(14)    R22       1
    I2(12)    OBJ       -191
    I2(12)    R0        21
    I2(12)    R1        131
    I2(12)    R2        -82
    I2(12)    R3        13
    I2(12)    R4        10
    I2(12)    R7        9
    I2(12)    R8        6
    I2(12)    R9        11
    I2(12)    R10       7
    I2(12)    R11       5
    I2(12)    R12       8
    I2(12)    R22       1
    I3(11)    OBJ       -122
    I3(11)    R0        88
    I3(11)    R1        156
    I3(11)    R2        148
    I3(11)    R4        4
    I3(11)    R5        13
    I3(11)    R6        13
    I3(11)    R7        9
    I3(11)    R8        13
    I3(11)    R9        10
    I3(11)    R10       19
    I3(11)    R22       1
    I4(11)    OBJ       57
    I4(11)    R0        -170
    I4(11)    R1        51
    I4(11)    R2        -126
    I4(11)    R4        18
    I4(11)    R5        15
    I4(11)    R6        -1
    I4(11)    R8        3
    I4(11)    R9        7
    I4(11)    R10       -1
    I4(11)    R11       14
    I4(11)    R22       1
    I5(12)    OBJ       -104
    I5(12)    R0        -182
    I5(12)    R1        135
    I5(12)    R2        -17
    I5(12)    R3        17
    I5(12)    R4        19
    I5(12)    R6        19
    I5(12)    R7        8
    I5(12)    R8        9
    I5(12)    R9        14
    I5(12)    R10       19
    I5(12)    R12       6
    I5(12)    R22       1
    I6(14)    OBJ       113
    I6(14)    R0        -28
    I6(14)    R1        40
    I6(14)    R2        48
    I6(14)    R3        16
    I6(14)    R4        3
    I6(14)    R5        1
    I6(14)    R6        16
    I6(14)    R7        9
    I6(14)    R8        18
    I6(14)    R9        17
    I6(14)    R10       7
    I6(14)    R11       8
    I6(14)    R12       18
    I6(14)    R22       1
    I7(13)    OBJ       -105
    I7(13)    R0        -45
    I7(13)    R1        167
    I7(13)    R2        -166
    I7(13)    R4        9
    I7(13)    R5        11
    I7(13)    R6        9
    I7(13)    R7        1
    I7(13)    R8        7
    I7(13)    R9        9
    I7(13)    R10       7
    I7(13)    R11       17
    I7(13)    R12       19
    I7(13)    R22       1
    I8(13)    OBJ       112
    I8(13)    R0        153
    I8(13)    R1        184
    I8(13)    R2        -96
    I8(13)    R3        17
    I8(13)    R4        17
    I8(13)    R5        17
    I8(13)    R6        5
    I8(13)    R7        11
    I8(13)    R8        3
    I8(13)    R9        4
    I8(13)    R10       16
    I8(13)    R11       16
    I8(13)    R22       1
    I9(13)    OBJ       124
    I9(13)    R0        198
    I9(13)    R1        21
    I9(13)    R2        153
    I9(13)    R3        5
    I9(13)    R4        13
    I9(13)    R5        8
    I9(13)    R7        3
    I9(13)    R8        7
    I9(13)    R9        6
    I9(13)    R10       9
    I9(13)    R11       18
    I9(13)    R12       19
    I9(13)    R22       1
    MARKER    'MARKER'                 'INTEND'
    C10(16)   OBJ       8
    C10(16)   R0        -8
    C10(16)   R1        6
    C10(16)   R2        -5
    C10(16)   R3        9
    C10(16)   R4        5
    C10(16)   R5        17
    C10(16)   R6        5
    C10(16)   R7        16
    C10(16)   R8        4
    C10(16)   R10       2
    C10(16)   R13       10
    C10(16)   R14       4
    C10(16)   R15       5
    C10(16)   R18       10
    C10(16)   R20       14
    C10(16)   R21       7
    C11(21)   OBJ       -10
    C11(21)   R0        -6
    C11(21)   R1        7
    C11(21)   R2        8
    C11(21)   R3        15
    C11(21)   R4        10
    C11(21)   R5        14
    C11(21)   R6        7
    C11(21)   R7        -1
    C11(21)   R8        17
    C11(21)   R9        17
    C11(21)   R10       17
    C11(21)   R11       -1
    C11(21)   R12       5
    C11(21)   R13       2
    C11(21)   R14       18
    C11(21)   R15       1
    C11(21)   R16       7
    C11(21)   R17       1
    C11(21)   R18       10
    C11(21)   R19       13
    C11(21)   R20       3
    C12(20)   R0        -5
    C12(20)   R1        -6
    C12(20)   R2        3
    C12(20)   R3        15
    C12(20)   R4        3
    C12(20)   R5        1
    C12(20)   R6        -1
    C12(20)   R7        12
    C12(20)   R8        5
    C12(20)   R9        4
    C12(20)   R10       1
    C12(20)   R11       10
    C12(20)   R13       7
    C12(20)   R14       7
    C12(20)   R15       3
    C12(20)   R16       8
    C12(20)   R17       2
    C12(20)   R19       5
    C12(20)   R20       13
    C12(20)   R21       15
    C13(19)   OBJ       -5
    C13(19)   R0        5
    C13(19)   R1        -4
    C13(19)   R2        6
    C13(19)   R4        6
    C13(19)   R5        3
    C13(19)   R6        19
    C13(19)   R7        10
    C13(19)   R8        3
    C13(19)   R9        14
    C13(19)   R10       12
    C13(19)   R11       3
    C13(19)   R13       18
    C13(19)   R14       5
    C13(19)   R15       3
    C13(19)   R17       7
    C13(19)   R18       5
    C13(19)   R19       7
    C13(19)   R20       18
    C13(19)   R21       7
    C14(13)   OBJ       -7
    C14(13)   R0        -5
    C14(13)   R1        -4
    C14(13)   R2        -5
    C14(13)   R3        11
    C14(13)   R7        14
    C14(13)   R8        6
    C14(13)   R9        18
    C14(13)   R10       13
    C14(13)   R11       10
    C14(13)   R14       8
    C14(13)   R15       19
    C14(13)   R18       8
    C14(13)   R19       13
    C15(19)   OBJ       -7
    C15(19)   R0        9
    C15(19)   R1        4
    C15(19)   R2        2
    C15(19)   R3        18
    C15(19)   R4        12
    C15(19)   R5        19
    C15(19)   R6        2
    C15(19)   R8        15
    C15(19)   R9        8
    C15(19)   R10       3
    C15(19)   R11       10
    C15(19)   R12       3
    C15(19)   R13       9
    C15(19)   R14       9
    C15(19)   R15       19
    C15(19)   R16       5
    C15(19)   R19       3
    C15(19)   R20       18
    C15(19)   R21       2
    C16(18)   OBJ       9
    C16(18)   R0        -8
    C16(18)   R1        1
    C16(18)   R2        -9
    C16(18)   R3        3
    C16(18)   R5        15
    C16(18)   R7        10
    C16(18)   R8        16
    C16(18)   R9        5
    C16(18)   R10       5
    C16(18)   R11       8
    C16(18)   R13       1
    C16(18)   R14       -1
    C16(18)   R15       15
    C16(18)   R17       6
    C16(18)   R18       11
    C16(18)   R19       13
    C16(18)   R20       14
    C16(18)   R21       3
    C17(15)   OBJ       6
    C17(15)   R0        -8
    C17(15)   R1        9
    C17(15)   R2        7
    C17(15)   R6        17
    C17(15)   R7        7
    C17(15)   R10       10
    C17(15)   R11       19
    C17(15)   R12       3
    C17(15)   R14       7
    C17(15)   R15       -1
    C17(15)   R16       6
    C17(15)   R18       12
    C17(15)   R19       11
    C17(15)   R20       9
    C17(15)   R21       8
    C18(18)   OBJ       -10
    C18(18)   R0        2
    C18(18)   R1        6
    C18(18)   R2        -7
    C18(18)   R3        1
    C18(18)   R4        19
    C18(18)   R5        8
    C18(18)   R6        19
    C18(18)   R8        18
    C18(18)   R9        9
    C18(18)   R11       8
    C18(18)   R12       8
    C18(18)   R13       19
    C18(18)   R14       2
    C18(18)   R16       9
    C18(18)   R17       16
    C18(18)   R18       4
    C18(18)   R20       17
    C18(18)   R21       16
    C19(17)   OBJ       -1
    C19(17)   R0        -3
    C19(17)   R1        -9
    C19(17)   R2        -5
    C19(17)   R3        13
    C19(17)   R4        14
    C19(17)   R6        11
    C19(17)   R7        11
    C19(17)   R8        10
    C19(17)   R10       10
    C19(17)   R11       6
    C19(17)   R12       14
    C19(17)   R14       16
    C19(17)   R16       19
    C19(17)   R17       8
    C19(17)   R18       -1
    C19(17)   R19       15
    C19(17)   R21       2
    C20(1)    R3        1
    C21(1)    R4        1
    C22(1)    R5        1
    C23(1)    R6        1
    C24(1)    R7        1
    C25(1)    R8        1
    C26(1)    R9        1
    C27(1)    R10       1
    C28(1)    R11       1
    C29(1)    R12       1
    C30(1)    R13       1
    C31(1)    R14       1
    C32(1)    R15       1
    C33(1)    R16       1
    C34(1)    R17       1
    C35(1)    R18       1
    C36(1)    R19       1
    C37(1)    R20       1
    C38(1)    R21       1
    C39(1)    R22       1
RHS
    RHS1      R0        1.1533387710712341e+02
    RHS1      R1        3.3020772158781944e+02
    RHS1      R2        9.5896682979880381e+01
    RHS1      R3        62
    RHS1      R4        96
    RHS1      R5        80
    RHS1      R6        69
    RHS1      R7        74
    RHS1      R8        95
    RHS1      R9        71
    RHS1      R10       77
    RHS1      R11       83
    RHS1      R12       52
    RHS1      R13       76
    RHS1      R14       82
    RHS1      R15       87
    RHS1      R16       52
    RHS1      R17       64
    RHS1      R18       51
    RHS1      R19       78
    RHS1      R20       99
    RHS1      R21       89
    RHS1      R22       3
BOUNDS
 UP BND1      I0(11)    1
 UP BND1      I1(14)    1
 UP BND1      I2(12)    1
 UP BND1      I3(11)    1
 UP BND1      I4(11)    1
 UP BND1      I5(12)    1
 UP BND1      I6(14)    1
 UP BND1      I7(13)    1
 UP BND1      I8(13)    1
 UP BND1      I9(13)    1
ENDATA
